g3 1 1 0	# problem n-hexane
 2 0 14 0 0 	# vars, constraints, objectives, ranges, eqns
 0 13 0 0 0 0	# nonlinear constrs, objs; ccons: lin, nonlin, nd, nzlb
 0 0	# network constraints: nonlinear, linear
 0 2 0 	# nonlinear vars in constraints, objectives, both
 0 0 0 1	# linear network variables; functions; arith, flags
 0 0 0 0 0 	# discrete variables: binary, integer, nonlinear (b,c,o)
 0 20 	# nonzeros in Jacobian, obj. gradient
 0 0	# max name lengths: constraints, variables
 0 0 0 0 0	# common exprs: b,c,o,c1,o1
O0 0
o0
o54
6
o43
v0
o2
n3
o43
v1
o2
n9.21
o43
o0
o16
o44
o2
n-0.3741483202709622
v1
n1
o2
n6.04
o43
o0
o16
o44
o2
n-5.9076050569099285
v1
n1
o2
n25.3
o43
o0
o16
o44
o2
n-2.9538025284549643
v1
n1
o2
n10.96
o43
o0
o16
o44
o2
n-8.861407585364892
v1
n1
n12.313791358169851
O1 0
o5
v0
n-1.0
O2 0
o16
o5
v0
n-2.0
O3 0
o0
o54
5
o2
n3.0
o5
v1
n-1.0
o2
o2
n97.12102713559923
o5
o0
o16
o44
o2
n-8.861407585364892
v1
n1.0
n-1.0
o44
o2
n-8.861407585364892
v1
o2
o2
n35.68193454373597
o5
o0
o16
o44
o2
n-5.9076050569099285
v1
n1.0
n-1.0
o44
o2
n-5.9076050569099285
v1
o2
o2
n74.7312039699106
o5
o0
o16
o44
o2
n-2.9538025284549643
v1
n1.0
n-1.0
o44
o2
n-2.9538025284549643
v1
o2
o2
n3.445906029695562
o5
o0
o16
o44
o2
n-0.3741483202709622
v1
n1.0
n-1.0
o44
o2
n-0.3741483202709622
v1
n-1.3163412546284243
O4 0
o54
9
o2
n-3.0
o5
v1
n-2.0
o2
o2
n-210.79477695090367
o5
o0
o16
o44
o2
n-5.9076050569099285
v1
n1.0
n-1.0
o44
o2
n-5.9076050569099285
v1
o2
o2
n-210.79477695090367
o5
o0
o16
o44
o2
n-5.9076050569099285
v1
n1.0
n-2.0
o44
o2
n-11.815210113819857
v1
o2
o2
n-1.2892799528221748
o5
o0
o16
o44
o2
n-0.3741483202709622
v1
n1.0
n-1.0
o44
o2
n-0.3741483202709622
v1
o2
o2
n-1.2892799528221748
o5
o0
o16
o44
o2
n-0.3741483202709622
v1
n1.0
n-2.0
o44
o2
n-0.7482966405419244
v1
o2
o2
n-860.6290065578286
o5
o0
o16
o44
o2
n-8.861407585364892
v1
n1.0
n-1.0
o44
o2
n-8.861407585364892
v1
o2
o2
n-860.6290065578286
o5
o0
o16
o44
o2
n-8.861407585364892
v1
n1.0
n-2.0
o44
o2
n-17.722815170729785
v1
o2
o2
n-220.74121924080558
o5
o0
o16
o44
o2
n-2.9538025284549643
v1
n1.0
n-1.0
o44
o2
n-2.9538025284549643
v1
o2
o2
n-220.74121924080558
o5
o0
o16
o44
o2
n-2.9538025284549643
v1
n1.0
n-2.0
o44
o2
n-5.9076050569099285
v1
O5 0
o54
15
o2
o2
n0.0446249
o5
v0
n4
v1
o2
o2
n1.740621
v0
o5
v1
n0.303
o2
o2
n-2.050688
v0
o5
v1
n0.845
o2
o2
n-0.7724346
o5
v0
n2
o5
v1
n1.055
o2
o2
n0.2116422
o5
v0
n3
o5
v1
n0.523
o2
o2
o2
n-3.187864
v0
o5
v1
n1.48
o44
o16
o5
v0
n2
o2
o2
o2
n-1.134719
o5
v0
n3
o5
v1
n2.06
o44
o16
o5
v0
n2
o2
o2
o2
n0.6817086
o5
v0
n2
o5
v1
n1.19
o44
o2
n-1.0
v0
o2
o2
o2
n-1.111314
o5
v0
n2
o5
v1
n1.883
o44
o16
o5
v0
n2
o2
o2
o2
n-0.02377251
o5
v0
n7
o5
v1
n0.98
o44
o2
n-1.0
v0
o2
o2
o2
n3.744662
v0
o5
v1
n0.94
o44
o0
o2
n-0.864
o5
o0
v0
n-0.767
n2
o2
n-0.7
o5
o0
v1
n-1.21
n2
o2
o2
o2
n-0.4322223
o5
v0
n3
o5
v1
n1.47
o44
o0
o2
n-1.094
o5
o0
v0
n-0.707
n2
o2
n-0.52
o5
o0
v1
n-1.13
n2
o2
o2
o2
n-0.8054799
o5
v0
n2
o5
v1
n1.11
o44
o0
o2
n-0.751
o5
o0
v0
n-0.692
n2
o2
n-0.69
o5
o0
v1
n-1.0
n2
o2
o2
o2
n-1.055577
o5
v0
n2
o5
v1
n0.895
o44
o0
o2
n-1.062
o5
o0
v0
n-0.46
n2
o2
n-0.88
o5
o0
v1
n-0.82
n2
o2
o2
o2
n-0.02932639
v0
o5
v1
n1.73
o44
o0
o2
n-6.6
o5
o0
v0
n-0.92
n2
o2
n-180.0
o5
o0
v1
n-1.14
n2
O6 0
o54
25
o2
n1.740621
o5
v1
n0.303
o2
n-2.050688
o5
v1
n0.845
o2
o2
n0.6349266
o5
v0
n2.0
o5
v1
n0.523
o2
o2
n3.744662
o5
v1
n0.94
o44
o0
o2
n-0.7
o5
o0
v1
n-1.21
n2.0
o2
n-0.864
o5
o0
v0
n-0.767
n2.0
o2
o2
n0.1784996
v1
o5
v0
n3.0
o2
o2
n-1.5448692
v0
o5
v1
n1.055
o2
o2
n-0.02932639
o5
v1
n1.73
o44
o0
o2
n-180.0
o5
o0
v1
n-1.14
n2.0
o2
n-6.6
o5
o0
v0
n-0.92
n2.0
o2
o2
n-3.187864
o5
v1
n1.48
o44
o16
o5
v0
n2.0
o2
o2
o2
n2.269438
o5
v0
n4.0
o5
v1
n2.06
o44
o16
o5
v0
n2.0
o2
o2
o2
n2.222628
o5
v0
n3.0
o5
v1
n1.883
o44
o16
o5
v0
n2.0
o2
o2
o2
n1.3634172
v0
o5
v1
n1.19
o44
o2
n-1.0
v0
o2
o2
o2
n0.02377251
o5
v0
n7.0
o5
v1
n0.98
o44
o2
n-1.0
v0
o2
o2
o2
n6.375728
o5
v0
n2.0
o5
v1
n1.48
o44
o16
o5
v0
n2.0
o2
o2
o2
n-1.2966669
o5
v0
n2.0
o5
v1
n1.47
o44
o0
o2
n-0.52
o5
o0
v1
n-1.13
n2.0
o2
n-1.094
o5
o0
v0
n-0.707
n2.0
o2
o2
o2
n-2.111154
v0
o5
v1
n0.895
o44
o0
o2
n-1.062
o5
o0
v0
n-0.46
n2.0
o2
n-0.88
o5
o0
v1
n-0.82
n2.0
o2
o2
o2
n-0.16640757
o5
v0
n6.0
o5
v1
n0.98
o44
o2
n-1.0
v0
o2
o2
o2
n-2.222628
v0
o5
v1
n1.883
o44
o16
o5
v0
n2.0
o2
o2
o2
n-0.6817086
o5
v0
n2.0
o5
v1
n1.19
o44
o2
n-1.0
v0
o2
o2
o2
n-1.6109598
v0
o5
v1
n1.11
o44
o0
o2
n-0.69
o5
o0
v1
n-1.0
n2.0
o2
n-0.751
o5
o0
v0
n-0.692
n2.0
o2
o2
o2
n-3.404157
o5
v0
n2.0
o5
v1
n2.06
o44
o16
o5
v0
n2.0
o2
o2
o2
o2
n3.744662
v0
o5
v1
n0.94
o0
o2
n-1.728
v0
n1.325376
o44
o0
o2
n-0.7
o5
o0
v1
n-1.21
n2.0
o2
n-0.864
o5
o0
v0
n-0.767
n2.0
o2
o2
o2
o2
n-1.055577
o5
v0
n2.0
o5
v1
n0.895
o0
o2
n-2.124
v0
n0.9770400000000001
o44
o0
o2
n-1.062
o5
o0
v0
n-0.46
n2.0
o2
n-0.88
o5
o0
v1
n-0.82
n2.0
o2
o2
o2
o2
n-0.02932639
v0
o5
v1
n1.73
o0
o2
n-13.2
v0
n12.144
o44
o0
o2
n-180.0
o5
o0
v1
n-1.14
n2.0
o2
n-6.6
o5
o0
v0
n-0.92
n2.0
o2
o2
o2
o2
n-0.8054799
o5
v0
n2.0
o5
v1
n1.11
o0
o2
n-1.502
v0
n1.0393839999999999
o44
o0
o2
n-0.69
o5
o0
v1
n-1.0
n2.0
o2
n-0.751
o5
o0
v0
n-0.692
n2.0
o2
o2
o2
o2
n-0.4322223
o5
v0
n3.0
o5
v1
n1.47
o0
o2
n-2.188
v0
n1.546916
o44
o0
o2
n-0.52
o5
o0
v1
n-1.13
n2.0
o2
n-1.094
o5
o0
v0
n-0.707
n2.0
O7 0
o54
41
o2
n-1.5448692
o5
v1
n1.055
o2
o2
n1.2698532
o5
v1
n0.523
v0
o2
o2
n0.5354988
v1
o5
v0
n2.0
o2
o2
n1.3634172
o5
v1
n1.19
o44
o2
n-1.0
v0
o2
o2
n-2.111154
o5
v1
n0.895
o44
o0
o2
n-1.062
o5
o0
v0
n-0.46
n2.0
o2
n-0.88
o5
o0
v1
n-0.82
n2.0
o2
o2
n-2.222628
o5
v1
n1.883
o44
o16
o5
v0
n2.0
o2
o2
n-1.6109598
o5
v1
n1.11
o44
o0
o2
n-0.69
o5
o0
v1
n-1.0
n2.0
o2
n-0.751
o5
o0
v0
n-0.692
n2.0
o2
o2
o2
n2.242045548
o5
v1
n0.895
o5
v0
n2.0
o44
o0
o2
n-1.062
o5
o0
v0
n-0.46
n2.0
o2
n-0.88
o5
o0
v1
n-0.82
n2.0
o2
o2
o2
n19.127184
o5
v1
n1.48
v0
o44
o16
o5
v0
n2.0
o2
o2
o2
n15.886066
o5
v1
n2.06
o5
v0
n3.0
o44
o16
o5
v0
n2.0
o2
o2
o2
n3.744662
o5
v1
n0.94
o0
o2
n-1.728
v0
n1.325376
o44
o0
o2
n-0.7
o5
o0
v1
n-1.21
n2.0
o2
n-0.864
o5
o0
v0
n-0.767
n2.0
o2
o2
o2
n1.2098308098000001
o5
v1
n1.11
o5
v0
n2.0
o44
o0
o2
n-0.69
o5
o0
v1
n-1.0
n2.0
o2
n-0.751
o5
o0
v0
n-0.692
n2.0
o2
o2
o2
n0.33281514
o5
v1
n0.98
o5
v0
n6.0
o44
o2
n-1.0
v0
o2
o2
o2
n11.113139999999998
o5
v1
n1.883
o5
v0
n2.0
o44
o16
o5
v0
n2.0
o2
o2
o2
n0.9457023924000001
o5
v1
n1.47
o5
v0
n3.0
o44
o0
o2
n-0.52
o5
o0
v1
n-1.13
n2.0
o2
n-1.094
o5
o0
v0
n-0.707
n2.0
o2
o2
o2
n0.6817086
o5
v1
n1.19
o5
v0
n2.0
o44
o2
n-1.0
v0
o2
o2
o2
n0.387108348
v0
o5
v1
n1.73
o44
o0
o2
n-180.0
o5
o0
v1
n-1.14
n2.0
o2
n-6.6
o5
o0
v0
n-0.92
n2.0
o2
o2
o2
n0.387108348
o5
v1
n1.73
o0
v0
n-0.92
o44
o0
o2
n-180.0
o5
o0
v1
n-1.14
n2.0
o2
n-6.6
o5
o0
v0
n-0.92
n2.0
o2
o2
o2
n-2.5933338
o5
v1
n1.47
v0
o44
o0
o2
n-0.52
o5
o0
v1
n-1.13
n2.0
o2
n-1.094
o5
o0
v0
n-0.707
n2.0
o2
o2
o2
n-4.538876
o5
v1
n2.06
o5
v0
n5.0
o44
o16
o5
v0
n2.0
o2
o2
o2
n-0.02932639
o5
v1
n1.73
o0
o2
n-13.2
v0
n12.144
o44
o0
o2
n-180.0
o5
o0
v1
n-1.14
n2.0
o2
n-6.6
o5
o0
v0
n-0.92
n2.0
o2
o2
o2
n-4.445256
o5
v1
n1.883
o5
v0
n4.0
o44
o16
o5
v0
n2.0
o2
o2
o2
n-1.3634172
v0
o5
v1
n1.19
o44
o2
n-1.0
v0
o2
o2
o2
n-1.3634172
o5
v1
n1.19
v0
o44
o2
n-1.0
v0
o2
o2
o2
n-0.02377251
o5
v1
n0.98
o5
v0
n7.0
o44
o2
n-1.0
v0
o2
o2
o2
n-12.751456
o5
v1
n1.48
o5
v0
n3.0
o44
o16
o5
v0
n2.0
o2
o2
o2
n-6.470775936
v0
o5
v1
n0.94
o44
o0
o2
n-0.7
o5
o0
v1
n-1.21
n2.0
o2
n-0.864
o5
o0
v0
n-0.767
n2.0
o2
o2
o2
n-6.470775936
o5
v1
n0.94
o0
v0
n-0.767
o44
o0
o2
n-0.7
o5
o0
v1
n-1.21
n2.0
o2
n-0.864
o5
o0
v0
n-0.767
n2.0
o2
o2
o2
n-6.808314
o5
v1
n2.06
v0
o44
o16
o5
v0
n2.0
o2
o2
o2
n-0.99844542
o5
v1
n0.98
o5
v0
n5.0
o44
o2
n-1.0
v0
o2
o2
o2
o2
n4.484091096
v0
o5
v1
n0.895
o0
v0
n-0.46
o44
o0
o2
n-1.062
o5
o0
v0
n-0.46
n2.0
o2
n-0.88
o5
o0
v1
n-0.82
n2.0
o2
o2
o2
o2
n2.8371071772
o5
v1
n1.47
o5
v0
n2.0
o0
v0
n-0.707
o44
o0
o2
n-0.52
o5
o0
v1
n-1.13
n2.0
o2
n-1.094
o5
o0
v0
n-0.707
n2.0
o2
o2
o2
o2
n2.4196616196000003
v0
o5
v1
n1.11
o0
v0
n-0.692
o44
o0
o2
n-0.69
o5
o0
v1
n-1.0
n2.0
o2
n-0.751
o5
o0
v0
n-0.692
n2.0
o2
o2
o2
o2
n-1.2966669
o5
v1
n1.47
o5
v0
n2.0
o0
o2
n-2.188
v0
n1.546916
o44
o0
o2
n-0.52
o5
o0
v1
n-1.13
n2.0
o2
n-1.094
o5
o0
v0
n-0.707
n2.0
o2
o2
o2
o2
n-2.111154
o5
v1
n0.895
v0
o0
o2
n-2.124
v0
n0.9770400000000001
o44
o0
o2
n-1.062
o5
o0
v0
n-0.46
n2.0
o2
n-0.88
o5
o0
v1
n-0.82
n2.0
o2
o2
o2
o2
n-1.6109598
o5
v1
n1.11
v0
o0
o2
n-1.502
v0
n1.0393839999999999
o44
o0
o2
n-0.69
o5
o0
v1
n-1.0
n2.0
o2
n-0.751
o5
o0
v0
n-0.692
n2.0
o2
o2
o2
o2
o2
n2.242045548
o5
v1
n0.895
o5
v0
n2.0
o0
v0
n-0.46
o0
o2
n-2.124
v0
n0.9770400000000001
o44
o0
o2
n-1.062
o5
o0
v0
n-0.46
n2.0
o2
n-0.88
o5
o0
v1
n-0.82
n2.0
o2
o2
o2
o2
o2
n1.2098308098000001
o5
v1
n1.11
o5
v0
n2.0
o0
v0
n-0.692
o0
o2
n-1.502
v0
n1.0393839999999999
o44
o0
o2
n-0.69
o5
o0
v1
n-1.0
n2.0
o2
n-0.751
o5
o0
v0
n-0.692
n2.0
o2
o2
o2
o2
o2
n0.9457023924000001
o5
v1
n1.47
o5
v0
n3.0
o0
v0
n-0.707
o0
o2
n-2.188
v0
n1.546916
o44
o0
o2
n-0.52
o5
o0
v1
n-1.13
n2.0
o2
n-1.094
o5
o0
v0
n-0.707
n2.0
o2
o2
o2
o2
o2
n0.387108348
v0
o5
v1
n1.73
o0
v0
n-0.92
o0
o2
n-13.2
v0
n12.144
o44
o0
o2
n-180.0
o5
o0
v1
n-1.14
n2.0
o2
n-6.6
o5
o0
v0
n-0.92
n2.0
o2
o2
o2
o2
o2
n-6.470775936
v0
o5
v1
n0.94
o0
v0
n-0.767
o0
o2
n-1.728
v0
n1.325376
o44
o0
o2
n-0.7
o5
o0
v1
n-1.21
n2.0
o2
n-0.864
o5
o0
v0
n-0.767
n2.0
O8 0
o54
20
o2
n0.0446249
o5
v0
n4.0
o2
o2
n0.5274081629999999
v0
o5
v1
n-0.6970000000000001
o2
o2
n0.1106888706
o5
v0
n3.0
o5
v1
n-0.477
o2
o2
n-0.8149185029999999
o5
v0
n2.0
o5
v1
n0.05499999999999994
o2
o2
n-1.73283136
v0
o5
v1
n-0.15500000000000003
o2
o2
o2
n0.8112332339999999
o5
v0
n2.0
o5
v1
n0.18999999999999995
o44
o2
n-1.0
v0
o2
o2
o2
n3.51998228
v0
o5
v1
n-0.06000000000000005
o44
o0
o2
n-0.7
o5
o0
v1
n-1.21
n2.0
o2
n-0.864
o5
o0
v0
n-0.767
n2.0
o2
o2
o2
n-2.092604262
o5
v0
n2.0
o5
v1
n0.883
o44
o16
o5
v0
n2.0
o2
o2
o2
n-0.0232970598
o5
v0
n7.0
o5
v1
n-0.020000000000000018
o44
o2
n-1.0
v0
o2
o2
o2
n-0.944741415
o5
v0
n2.0
o5
v1
n-0.10499999999999998
o44
o0
o2
n-1.062
o5
o0
v0
n-0.46
n2.0
o2
n-0.88
o5
o0
v1
n-0.82
n2.0
o2
o2
o2
n-2.33752114
o5
v0
n3.0
o5
v1
n1.06
o44
o16
o5
v0
n2.0
o2
o2
o2
n-4.71803872
v0
o5
v1
n0.48
o44
o16
o5
v0
n2.0
o2
o2
o2
n-0.635366781
o5
v0
n3.0
o5
v1
n0.47
o44
o0
o2
n-0.52
o5
o0
v1
n-1.13
n2.0
o2
n-1.094
o5
o0
v0
n-0.707
n2.0
o2
o2
o2
n-0.0507346547
v0
o5
v1
n0.73
o44
o0
o2
n-180.0
o5
o0
v1
n-1.14
n2.0
o2
n-6.6
o5
o0
v0
n-0.92
n2.0
o2
o2
o2
n-0.8940826890000001
o5
v0
n2.0
o5
v1
n0.1100000000000001
o44
o0
o2
n-0.69
o5
o0
v1
n-1.0
n2.0
o2
n-0.751
o5
o0
v0
n-0.692
n2.0
o2
o2
o2
o2
n3.744662
v0
o5
v1
n0.94
o0
o2
n-1.4
v1
n1.694
o44
o0
o2
n-0.7
o5
o0
v1
n-1.21
n2.0
o2
n-0.864
o5
o0
v0
n-0.767
n2.0
o2
o2
o2
o2
n-1.055577
o5
v0
n2.0
o5
v1
n0.895
o0
o2
n-1.76
v1
n1.4431999999999998
o44
o0
o2
n-1.062
o5
o0
v0
n-0.46
n2.0
o2
n-0.88
o5
o0
v1
n-0.82
n2.0
o2
o2
o2
o2
n-0.02932639
v0
o5
v1
n1.73
o0
o2
n-360.0
v1
n410.4
o44
o0
o2
n-180.0
o5
o0
v1
n-1.14
n2.0
o2
n-6.6
o5
o0
v0
n-0.92
n2.0
o2
o2
o2
o2
n-0.8054799
o5
v0
n2.0
o5
v1
n1.11
o0
o2
n-1.38
v1
n1.38
o44
o0
o2
n-0.69
o5
o0
v1
n-1.0
n2.0
o2
n-0.751
o5
o0
v0
n-0.692
n2.0
o2
o2
o2
o2
n-0.4322223
o5
v0
n3.0
o5
v1
n1.47
o0
o2
n-1.04
v1
n1.1752
o44
o0
o2
n-0.52
o5
o0
v1
n-1.13
n2.0
o2
n-1.094
o5
o0
v0
n-0.707
n2.0
O9 0
o54
34
o2
o2
n0.26858886080000005
v0
o5
v1
n-1.155
o2
o2
n-0.367603489611
v0
o5
v1
n-1.697
o2
o2
n-0.0527985912762
o5
v0
n3.0
o5
v1
n-1.4769999999999999
o2
o2
n-0.04482051766499994
o5
v0
n2.0
o5
v1
n-0.9450000000000001
o2
o2
o2
n1.85781552
o5
v0
n2.0
o5
v1
n0.895
o44
o0
o2
n-1.062
o5
o0
v0
n-0.46
n2.0
o2
n-0.88
o5
o0
v1
n-0.82
n2.0
o2
o2
o2
n0.0004659411960000004
o5
v0
n7.0
o5
v1
n-1.02
o44
o2
n-1.0
v0
o2
o2
o2
n0.449511192
o5
v0
n3.0
o5
v1
n1.47
o44
o0
o2
n-0.52
o5
o0
v1
n-1.13
n2.0
o2
n-1.094
o5
o0
v0
n-0.707
n2.0
o2
o2
o2
n1.1115622619999999
o5
v0
n2.0
o5
v1
n1.11
o44
o0
o2
n-0.69
o5
o0
v1
n-1.0
n2.0
o2
n-0.751
o5
o0
v0
n-0.692
n2.0
o2
o2
o2
n0.15413431445999995
o5
v0
n2.0
o5
v1
n-0.81
o44
o2
n-1.0
v0
o2
o2
o2
n10.5575004
v0
o5
v1
n1.73
o44
o0
o2
n-180.0
o5
o0
v1
n-1.14
n2.0
o2
n-6.6
o5
o0
v0
n-0.92
n2.0
o2
o2
o2
n0.09919784857499998
o5
v0
n2.0
o5
v1
n-1.105
o44
o0
o2
n-1.062
o5
o0
v0
n-0.46
n2.0
o2
n-0.88
o5
o0
v1
n-0.82
n2.0
o2
o2
o2
n-0.29862238707
o5
v0
n3.0
o5
v1
n-0.53
o44
o0
o2
n-0.52
o5
o0
v1
n-1.13
n2.0
o2
n-1.094
o5
o0
v0
n-0.707
n2.0
o2
o2
o2
n-0.21119893680000018
v0
o5
v1
n-1.06
o44
o0
o2
n-0.7
o5
o0
v1
n-1.21
n2.0
o2
n-0.864
o5
o0
v0
n-0.767
n2.0
o2
o2
o2
n-1.847769563346
o5
v0
n2.0
o5
v1
n-0.11699999999999999
o44
o16
o5
v0
n2.0
o2
o2
o2
n-2.2646585856
v0
o5
v1
n-0.52
o44
o16
o5
v0
n2.0
o2
o2
o2
n-0.037036297931
v0
o5
v1
n-0.27
o44
o0
o2
n-180.0
o5
o0
v1
n-1.14
n2.0
o2
n-6.6
o5
o0
v0
n-0.92
n2.0
o2
o2
o2
n-2.4777724084000003
o5
v0
n3.0
o5
v1
n0.06000000000000005
o44
o16
o5
v0
n2.0
o2
o2
o2
n-5.242526799999999
v0
o5
v1
n0.94
o44
o0
o2
n-0.7
o5
o0
v1
n-1.21
n2.0
o2
n-0.864
o5
o0
v0
n-0.767
n2.0
o2
o2
o2
n-0.0983490957900001
o5
v0
n2.0
o5
v1
n-0.8899999999999999
o44
o0
o2
n-0.69
o5
o0
v1
n-1.0
n2.0
o2
n-0.751
o5
o0
v0
n-0.692
n2.0
o2
o2
o2
o2
n1.6627448904
o5
v0
n2.0
o5
v1
n-0.10499999999999998
o0
v1
n-0.82
o44
o0
o2
n-1.062
o5
o0
v0
n-0.46
n2.0
o2
n-0.88
o5
o0
v1
n-0.82
n2.0
o2
o2
o2
o2
n3.51998228
v0
o5
v1
n-0.06000000000000005
o0
o2
n-1.4
v1
n1.694
o44
o0
o2
n-0.7
o5
o0
v1
n-1.21
n2.0
o2
n-0.864
o5
o0
v0
n-0.767
n2.0
o2
o2
o2
o2
n18.264475692
v0
o5
v1
n0.73
o0
v1
n-1.14
o44
o0
o2
n-180.0
o5
o0
v1
n-1.14
n2.0
o2
n-6.6
o5
o0
v0
n-0.92
n2.0
o2
o2
o2
o2
n1.23383411082
o5
v0
n2.0
o5
v1
n0.1100000000000001
o0
v1
n-1.0
o44
o0
o2
n-0.69
o5
o0
v1
n-1.0
n2.0
o2
n-0.751
o5
o0
v0
n-0.692
n2.0
o2
o2
o2
o2
n0.6607814522400001
o5
v0
n3.0
o5
v1
n0.47
o0
v1
n-1.13
o44
o0
o2
n-0.52
o5
o0
v1
n-1.13
n2.0
o2
n-1.094
o5
o0
v0
n-0.707
n2.0
o2
o2
o2
o2
n-0.944741415
o5
v0
n2.0
o5
v1
n-0.10499999999999998
o0
o2
n-1.76
v1
n1.4431999999999998
o44
o0
o2
n-1.062
o5
o0
v0
n-0.46
n2.0
o2
n-0.88
o5
o0
v1
n-0.82
n2.0
o2
o2
o2
o2
n-4.927975191999999
v0
o5
v1
n-0.06000000000000005
o0
v1
n-1.21
o44
o0
o2
n-0.7
o5
o0
v1
n-1.21
n2.0
o2
n-0.864
o5
o0
v0
n-0.767
n2.0
o2
o2
o2
o2
n-0.635366781
o5
v0
n3.0
o5
v1
n0.47
o0
o2
n-1.04
v1
n1.1752
o44
o0
o2
n-0.52
o5
o0
v1
n-1.13
n2.0
o2
n-1.094
o5
o0
v0
n-0.707
n2.0
o2
o2
o2
o2
n-0.0507346547
v0
o5
v1
n0.73
o0
o2
n-360.0
v1
n410.4
o44
o0
o2
n-180.0
o5
o0
v1
n-1.14
n2.0
o2
n-6.6
o5
o0
v0
n-0.92
n2.0
o2
o2
o2
o2
n-0.8940826890000001
o5
v0
n2.0
o5
v1
n0.1100000000000001
o0
o2
n-1.38
v1
n1.38
o44
o0
o2
n-0.69
o5
o0
v1
n-1.0
n2.0
o2
n-0.751
o5
o0
v0
n-0.692
n2.0
o2
o2
o2
o2
o2
n1.85781552
o5
v0
n2.0
o5
v1
n0.895
o0
v1
n-0.82
o0
o2
n-1.76
v1
n1.4431999999999998
o44
o0
o2
n-1.062
o5
o0
v0
n-0.46
n2.0
o2
n-0.88
o5
o0
v1
n-0.82
n2.0
o2
o2
o2
o2
o2
n0.449511192
o5
v0
n3.0
o5
v1
n1.47
o0
v1
n-1.13
o0
o2
n-1.04
v1
n1.1752
o44
o0
o2
n-0.52
o5
o0
v1
n-1.13
n2.0
o2
n-1.094
o5
o0
v0
n-0.707
n2.0
o2
o2
o2
o2
o2
n1.1115622619999999
o5
v0
n2.0
o5
v1
n1.11
o0
v1
n-1.0
o0
o2
n-1.38
v1
n1.38
o44
o0
o2
n-0.69
o5
o0
v1
n-1.0
n2.0
o2
n-0.751
o5
o0
v0
n-0.692
n2.0
o2
o2
o2
o2
o2
n10.5575004
v0
o5
v1
n1.73
o0
v1
n-1.14
o0
o2
n-360.0
v1
n410.4
o44
o0
o2
n-180.0
o5
o0
v1
n-1.14
n2.0
o2
n-6.6
o5
o0
v0
n-0.92
n2.0
o2
o2
o2
o2
o2
n-5.242526799999999
v0
o5
v1
n0.94
o0
v1
n-1.21
o0
o2
n-1.4
v1
n1.694
o44
o0
o2
n-0.7
o5
o0
v1
n-1.21
n2.0
o2
n-0.864
o5
o0
v0
n-0.767
n2.0
O10 0
o54
35
o2
n0.5274081629999999
o5
v1
n-0.6970000000000001
o2
n0.1784996
o5
v0
n3.0
o2
n-1.73283136
o5
v1
n-0.15500000000000003
o2
o2
n3.51998228
o5
v1
n-0.06000000000000005
o44
o0
o2
n-0.7
o5
o0
v1
n-1.21
n2.0
o2
n-0.864
o5
o0
v0
n-0.767
n2.0
o2
o2
n0.3320666118
o5
v1
n-0.477
o5
v0
n2.0
o2
o2
n-1.6298370059999998
v0
o5
v1
n0.05499999999999994
o2
o2
n-4.71803872
o5
v1
n0.48
o44
o16
o5
v0
n2.0
o2
o2
n-0.0507346547
o5
v1
n0.73
o44
o0
o2
n-180.0
o5
o0
v1
n-1.14
n2.0
o2
n-6.6
o5
o0
v0
n-0.92
n2.0
o2
o2
o2
n4.185208524
o5
v1
n0.883
o5
v0
n3.0
o44
o16
o5
v0
n2.0
o2
o2
o2
n1.6224664679999998
v0
o5
v1
n0.18999999999999995
o44
o2
n-1.0
v0
o2
o2
o2
n0.0232970598
o5
v1
n-0.020000000000000018
o5
v0
n7.0
o44
o2
n-1.0
v0
o2
o2
o2
n4.67504228
o5
v1
n1.06
o5
v0
n4.0
o44
o16
o5
v0
n2.0
o2
o2
o2
n9.43607744
o5
v1
n0.48
o5
v0
n2.0
o44
o16
o5
v0
n2.0
o2
o2
o2
n10.5575004
o5
v1
n1.73
o0
v1
n-1.14
o44
o0
o2
n-180.0
o5
o0
v1
n-1.14
n2.0
o2
n-6.6
o5
o0
v0
n-0.92
n2.0
o2
o2
o2
n-4.185208524
v0
o5
v1
n0.883
o44
o16
o5
v0
n2.0
o2
o2
o2
n-0.8112332339999999
o5
v1
n0.18999999999999995
o5
v0
n2.0
o44
o2
n-1.0
v0
o2
o2
o2
n-1.88948283
v0
o5
v1
n-0.10499999999999998
o44
o0
o2
n-1.062
o5
o0
v0
n-0.46
n2.0
o2
n-0.88
o5
o0
v1
n-0.82
n2.0
o2
o2
o2
n-1.9061003429999999
o5
v1
n0.47
o5
v0
n2.0
o44
o0
o2
n-0.52
o5
o0
v1
n-1.13
n2.0
o2
n-1.094
o5
o0
v0
n-0.707
n2.0
o2
o2
o2
n-0.1630794186
o5
v1
n-0.020000000000000018
o5
v0
n6.0
o44
o2
n-1.0
v0
o2
o2
o2
n-5.242526799999999
o5
v1
n0.94
o0
v1
n-1.21
o44
o0
o2
n-0.7
o5
o0
v1
n-1.21
n2.0
o2
n-0.864
o5
o0
v0
n-0.767
n2.0
o2
o2
o2
n-7.01256342
o5
v1
n1.06
o5
v0
n2.0
o44
o16
o5
v0
n2.0
o2
o2
o2
n-1.7881653780000002
v0
o5
v1
n0.1100000000000001
o44
o0
o2
n-0.69
o5
o0
v1
n-1.0
n2.0
o2
n-0.751
o5
o0
v0
n-0.692
n2.0
o2
o2
o2
o2
n3.71563104
v0
o5
v1
n0.895
o0
v1
n-0.82
o44
o0
o2
n-1.062
o5
o0
v0
n-0.46
n2.0
o2
n-0.88
o5
o0
v1
n-0.82
n2.0
o2
o2
o2
o2
n1.348533576
o5
v1
n1.47
o5
v0
n2.0
o0
v1
n-1.13
o44
o0
o2
n-0.52
o5
o0
v1
n-1.13
n2.0
o2
n-1.094
o5
o0
v0
n-0.707
n2.0
o2
o2
o2
o2
n3.51998228
v0
o5
v1
n-0.06000000000000005
o0
o2
n-1.728
v0
n1.325376
o44
o0
o2
n-0.7
o5
o0
v1
n-1.21
n2.0
o2
n-0.864
o5
o0
v0
n-0.767
n2.0
o2
o2
o2
o2
n2.2231245239999997
v0
o5
v1
n1.11
o0
v1
n-1.0
o44
o0
o2
n-0.69
o5
o0
v1
n-1.0
n2.0
o2
n-0.751
o5
o0
v0
n-0.692
n2.0
o2
o2
o2
o2
n-0.944741415
o5
v1
n-0.10499999999999998
o5
v0
n2.0
o0
o2
n-2.124
v0
n0.9770400000000001
o44
o0
o2
n-1.062
o5
o0
v0
n-0.46
n2.0
o2
n-0.88
o5
o0
v1
n-0.82
n2.0
o2
o2
o2
o2
n-0.635366781
o5
v1
n0.47
o5
v0
n3.0
o0
o2
n-2.188
v0
n1.546916
o44
o0
o2
n-0.52
o5
o0
v1
n-1.13
n2.0
o2
n-1.094
o5
o0
v0
n-0.707
n2.0
o2
o2
o2
o2
n-0.0507346547
v0
o5
v1
n0.73
o0
o2
n-13.2
v0
n12.144
o44
o0
o2
n-180.0
o5
o0
v1
n-1.14
n2.0
o2
n-6.6
o5
o0
v0
n-0.92
n2.0
o2
o2
o2
o2
n-0.8940826890000001
o5
v1
n0.1100000000000001
o5
v0
n2.0
o0
o2
n-1.502
v0
n1.0393839999999999
o44
o0
o2
n-0.69
o5
o0
v1
n-1.0
n2.0
o2
n-0.751
o5
o0
v0
n-0.692
n2.0
o2
o2
o2
o2
o2
n1.85781552
o5
v1
n0.895
o5
v0
n2.0
o0
v1
n-0.82
o0
o2
n-2.124
v0
n0.9770400000000001
o44
o0
o2
n-1.062
o5
o0
v0
n-0.46
n2.0
o2
n-0.88
o5
o0
v1
n-0.82
n2.0
o2
o2
o2
o2
o2
n0.449511192
o5
v1
n1.47
o5
v0
n3.0
o0
v1
n-1.13
o0
o2
n-2.188
v0
n1.546916
o44
o0
o2
n-0.52
o5
o0
v1
n-1.13
n2.0
o2
n-1.094
o5
o0
v0
n-0.707
n2.0
o2
o2
o2
o2
o2
n1.1115622619999999
o5
v1
n1.11
o5
v0
n2.0
o0
v1
n-1.0
o0
o2
n-1.502
v0
n1.0393839999999999
o44
o0
o2
n-0.69
o5
o0
v1
n-1.0
n2.0
o2
n-0.751
o5
o0
v0
n-0.692
n2.0
o2
o2
o2
o2
o2
n10.5575004
v0
o5
v1
n1.73
o0
v1
n-1.14
o0
o2
n-13.2
v0
n12.144
o44
o0
o2
n-180.0
o5
o0
v1
n-1.14
n2.0
o2
n-6.6
o5
o0
v0
n-0.92
n2.0
o2
o2
o2
o2
o2
n-5.242526799999999
v0
o5
v1
n0.94
o0
v1
n-1.21
o0
o2
n-1.728
v0
n1.325376
o44
o0
o2
n-0.7
o5
o0
v1
n-1.21
n2.0
o2
n-0.864
o5
o0
v0
n-0.767
n2.0
O11 0
o0
o54
5
o2
n2.302
o5
o0
o16
o3
n1
v1
n1
n0.373
o2
n0.3493
o5
o0
o16
o3
n1
v1
n1
n1.068
o2
n0.9563
o5
o0
o16
o3
n1
v1
n1
n3.993
o2
n-1.543
o5
o0
o16
o3
n1
v1
n1
n5.36
o2
n1.0452
o5
o0
o16
o3
n1
v1
n1
n6.87
n1.0
O12 0
o44
o54
6
o2
n-3.4056
o5
o0
o16
o3
n1
v1
n1
n0.419
o2
n-7.5474
o5
o0
o16
o3
n1
v1
n1
n1.355
o2
n-22.828
o5
o0
o16
o3
n1
v1
n1
n3.473
o2
n-57.063
o5
o0
o16
o3
n1
v1
n1
n7.1
o2
n-125.0
o5
o0
o16
o3
n1
v1
n1
n15.0
o2
n-265.5
o5
o0
o16
o3
n1
v1
n1
n30.0
O13 0
n0.0
x2
0 1.00000001
1 1.0
r
b
3
3
k1
0
G0 2
0 0
1 -1.3163412546284243
G1 1
0 0
G2 1
0 0
G3 1
1 0
G4 1
1 0
G5 2
0 0
1 0
G6 2
0 0
1 0
G7 2
0 0
1 0
G8 2
0 0
1 0
G9 2
0 0
1 0
G10 2
0 0
1 0
G11 1
1 0
G12 1
1 0
